sat

(objectives
 ((bvadd PriceProv5 (bvadd PriceProv4 (bvadd PriceProv3 (bvadd PriceProv1 PriceProv2)))) (_ bv10024 32))
)
;; statistics
(
 :cnf-variables 428
 :cnf-literals 1105
 :cnf-clauses 525
 :sat-checks 10
 :sat-restarts 12
 :sat-decisions 5756
 :sat-random-decisions 3
 :sat-propagations 17853285
 :sat-theory-propagations 3
 :sat-watched-clauses-visited 19087023
 :sat-binary-watched-clauses-visited 12344163
 :sat-conflicts 1535
 :sat-theory-conflicts 0
 :theory-necessary-interface-equalities 0
 :theory-extra-interface-equalities 0
 :euf-total-calls 6413
 :euf-complete-calls 8
 :euf-conflicts 0
 :euf-implications 3
 :euf-explanations 0
 :euf-egraph-nodes-created 5340
 :euf-egraph-nodes-deleted 3922
 :euf-num-asserted-equalities 63299
 :euf-num-asserted-inequalities 25633
 :euf-num-merges 128981
 :euf-num-merges-undone 128981
 :euf-num-atoms-retold 768
 :la-total-calls 6413
 :la-complete-calls 8
 :la-conflicts 0
 :la-implications 0
 :la-explanations 0
 :la-num-equalities-split 0
 :la-num-tableau-rows 0
 :la-num-tableau-variables 0
 :bv-total-calls 6413
 :bv-complete-calls 8
 :bv-conflicts 0
 :bv-implications 0
 :bv-explanations 0
 :fp-total-calls 6413
 :fp-complete-calls 8
 :fp-conflicts 0
 :fp-implications 0
 :fp-explanations 0
 :arr-total-calls 6413
 :arr-complete-calls 8
 :arr-conflicts 0
 :arr-implications 0
 :arr-explanations 0
 :arr-write-lemmas-added 0
 :arr-row-lemmas-added 0
 :arr-ext-lemmas-added 0
 :arr-const-lemmas-added 0
 :na-total-calls 6413
 :na-complete-calls 8
 :na-conflicts 0
 :na-implications 0
 :na-explanations 0
 :na-num_nonlinear_multiplications 0
 :na-num_axiom_checks 0
 :na-num_zero_lemmas 0
 :na-num_sign_lemmas 0
 :na-num_neutral_lemmas 0
 :na-num_proportionality_lemmas 0
 :na-num_bound_lemmas 0
 :na-num_tangent_lemmas 0
 :na-num_monotonicity_lemmas 0
 :na-num_sat_checks 0
 :na-axiom_check_time 0.000
 :na-sat_check_time 0.000
 :time-seconds 2.171
 :memory-mb 52.672
)
